(declare-fun temp270_1 () (_ BitVec 64))
(declare-fun var525626 () (_ BitVec 64))
(declare-fun temp270_2 () (_ BitVec 64))
(declare-fun var787770 () (_ BitVec 64))
(declare-fun temp270_3 () (_ BitVec 64))
(declare-fun var1836346 () (_ BitVec 64))
(declare-fun temp270_4 () (_ BitVec 64))
(declare-fun var2098490 () (_ BitVec 64))
(assert (= temp270_1 #x0000000000000000))
(assert (= var525626 temp270_1))
(assert (= temp270_2 #x0000000000000000))
(assert (= var787770 temp270_2))
(assert (= temp270_3 #x0000000000000000))
(assert (= var1836346 temp270_3))
(assert (= temp270_4 #x0000000000000000))
(assert (= var2098490 temp270_4))
(model-add temp270_1 () (_ BitVec 64) #x0000000000000000)
(model-add var525626 () (_ BitVec 64) #x0000000000000000)
(model-add temp270_2 () (_ BitVec 64) #x0000000000000000)
(model-add var787770 () (_ BitVec 64) #x0000000000000000)
(model-add temp270_3 () (_ BitVec 64) #x0000000000000000)
(model-add var1836346 () (_ BitVec 64) #x0000000000000000)
(model-add temp270_4 () (_ BitVec 64) #x0000000000000000)
(model-add var2098490 () (_ BitVec 64) #x0000000000000000)




